(set-logic QF_S)
(declare-fun var0 () String)
(assert (str.in.re var0 (re.++ (re.union (re.+ (str.to.re "0")) (re.+ (str.to.re "11"))) (re.++ (re.+ (re.* (str.to.re "22"))) (re.++ (re.+ (re.union (str.to.re "3") (str.to.re "4"))) (re.++ (re.* (re.* (str.to.re "5"))) (re.++ (re.union (re.+ (str.to.re "6")) (re.+ (str.to.re "777"))) (re.++ (re.union (re.* (str.to.re "888")) (re.* (str.to.re "999"))) (re.++ (re.union (re.* (str.to.re "aaa")) (re.* (str.to.re "bb"))) (re.++ (re.* (re.+ (str.to.re "c"))) (re.++ (re.union (re.* (str.to.re "ddd")) (re.* (str.to.re "ee"))) (re.++ (re.union (re.+ (str.to.re "ff")) (re.+ (str.to.re "g"))) (re.++ (re.union (re.* (str.to.re "hh")) (re.* (str.to.re "i"))) (re.++ (re.union (re.+ (str.to.re "j")) (re.+ (str.to.re "kk"))) (re.++ (re.+ (re.union (str.to.re "lll") (str.to.re "mmm"))) (re.++ (re.* (re.+ (str.to.re "nn"))) (re.++ (re.union (re.* (str.to.re "o")) (re.* (str.to.re "p"))) (re.++ (re.+ (re.* (str.to.re "qqq"))) (re.++ (re.+ (re.* (str.to.re "r"))) (re.++ (re.union (re.* (str.to.re "ss")) (re.* (str.to.re "tt"))) (re.++ (re.union (re.+ (str.to.re "uuu")) (re.+ (str.to.re "vvv"))) (re.++ (re.* (re.* (str.to.re "ww"))) (re.++ (re.* (re.+ (str.to.re "xx"))) (re.++ (re.union (re.* (str.to.re "y")) (re.* (str.to.re "zz"))) (re.++ (re.+ (re.+ (str.to.re "AA"))) (re.++ (re.+ (re.union (str.to.re "BB") (str.to.re "C"))) (re.++ (re.* (re.+ (str.to.re "DD"))) (re.++ (re.+ (re.* (str.to.re "EE"))) (re.++ (re.* (re.* (str.to.re "FFF"))) (re.++ (re.* (re.* (str.to.re "GG"))) (re.++ (re.* (re.+ (str.to.re "HHH"))) (re.++ (re.+ (re.* (str.to.re "III"))) (re.++ (re.union (re.+ (str.to.re "J")) (re.+ (str.to.re "KKK"))) (re.++ (re.* (re.+ (str.to.re "LLL"))) (re.++ (re.+ (re.union (str.to.re "MMM") (str.to.re "N"))) (re.++ (re.union (re.* (str.to.re "O")) (re.* (str.to.re "PPP"))) (re.++ (re.* (re.* (str.to.re "QQ"))) (re.++ (re.union (re.union (str.to.re "RR") (str.to.re "SS")) (re.union (str.to.re "T") (str.to.re "U"))) (re.++ (re.+ (re.* (str.to.re "VVV"))) (re.++ (re.union (re.union (str.to.re "WWW") (str.to.re "X")) (re.union (str.to.re "Y") (str.to.re "ZZ"))) (re.++ (re.+ (re.* (str.to.re "!"))) (re.++ (re.* (re.+ (str.to.re """"))) (re.++ (re.* (re.union (str.to.re "#") (str.to.re "$$"))) (re.++ (re.union (re.union (str.to.re "%%%") (str.to.re "&")) (re.union (str.to.re "'") (str.to.re "("))) (re.++ (re.+ (re.union (str.to.re ")))") (str.to.re "*"))) (re.++ (re.+ (re.* (str.to.re "+"))) (re.++ (re.+ (re.union (str.to.re ",,") (str.to.re "-"))) (re.++ (re.* (re.union (str.to.re ".") (str.to.re "//"))) (re.++ (re.union (re.* (str.to.re "::")) (re.* (str.to.re ";"))) (re.++ (re.union (re.+ (str.to.re "<<")) (re.+ (str.to.re "=="))) (re.++ (re.+ (re.union (str.to.re ">>") (str.to.re "??"))) (re.++ (re.* (re.+ (str.to.re "@"))) (re.++ (re.* (re.union (str.to.re "[") (str.to.re "\\\\\\"))) (re.++ (re.union (re.* (str.to.re "]]")) (re.* (str.to.re "^^"))) (re.++ (re.* (re.+ (str.to.re "_"))) (re.++ (re.* (re.union (str.to.re "```") (str.to.re "{{"))) (re.++ (re.* (re.+ (str.to.re "|||"))) (re.++ (re.union (re.+ (str.to.re "}}")) (re.+ (str.to.re "~"))) (re.++ (re.+ (re.union (str.to.re "000") (str.to.re "1"))) (re.++ (re.union (re.+ (str.to.re "222")) (re.+ (str.to.re "3"))) (re.++ (re.union (re.union (str.to.re "444") (str.to.re "55")) (re.union (str.to.re "666") (str.to.re "777"))) (re.++ (re.union (re.* (str.to.re "8")) (re.* (str.to.re "999"))) (re.++ (re.* (re.union (str.to.re "a") (str.to.re "bbb"))) (re.++ (re.union (re.* (str.to.re "ccc")) (re.* (str.to.re "ddd"))) (re.++ (re.union (re.+ (str.to.re "eee")) (re.+ (str.to.re "f"))) (re.++ (re.+ (re.union (str.to.re "gg") (str.to.re "hhh"))) (re.++ (re.* (re.+ (str.to.re "ii"))) (re.++ (re.* (re.union (str.to.re "jjj") (str.to.re "kkk"))) (re.++ (re.union (re.* (str.to.re "lll")) (re.* (str.to.re "mmm"))) (re.++ (re.* (re.* (str.to.re "nnn"))) (re.++ (re.* (re.union (str.to.re "ooo") (str.to.re "pp"))) (re.++ (re.union (re.* (str.to.re "q")) (re.* (str.to.re "r"))) (re.++ (re.* (re.* (str.to.re "ss"))) (re.++ (re.* (re.union (str.to.re "tt") (str.to.re "uu"))) (re.++ (re.* (re.+ (str.to.re "v"))) (re.++ (re.union (re.union (str.to.re "ww") (str.to.re "xxx")) (re.union (str.to.re "yyy") (str.to.re "zzz"))) (re.++ (re.union (re.+ (str.to.re "AAA")) (re.+ (str.to.re "BB"))) (re.++ (re.union (re.union (str.to.re "CCC") (str.to.re "D")) (re.union (str.to.re "EEE") (str.to.re "FFF"))) (re.++ (re.* (re.+ (str.to.re "GGG"))) (re.++ (re.+ (re.+ (str.to.re "HHH"))) (re.++ (re.+ (re.* (str.to.re "II"))) (re.++ (re.+ (re.union (str.to.re "JJJ") (str.to.re "KKK"))) (re.++ (re.union (re.+ (str.to.re "LLL")) (re.+ (str.to.re "M"))) (re.++ (re.* (re.+ (str.to.re "N"))) (re.++ (re.union (re.* (str.to.re "OOO")) (re.* (str.to.re "PP"))) (re.++ (re.+ (re.* (str.to.re "Q"))) (re.++ (re.+ (re.+ (str.to.re "RRR"))) (re.++ (re.+ (re.union (str.to.re "SS") (str.to.re "T"))) (re.++ (re.union (re.union (str.to.re "UUU") (str.to.re "V")) (re.union (str.to.re "WWW") (str.to.re "XX"))) (re.++ (re.union (re.* (str.to.re "YY")) (re.* (str.to.re "ZZ"))) (re.++ (re.union (re.union (str.to.re "!!!") (str.to.re """""")) (re.union (str.to.re "##") (str.to.re "$$"))) (re.++ (re.* (re.union (str.to.re "%") (str.to.re "&"))) (re.++ (re.+ (re.* (str.to.re "''"))) (re.++ (re.+ (re.+ (str.to.re "((("))) (re.++ (re.union (re.union (str.to.re ")))") (str.to.re "*")) (re.union (str.to.re "+") (str.to.re ","))) (re.++ (re.+ (re.* (str.to.re "---"))) (re.++ (re.union (re.union (str.to.re "..") (str.to.re "/")) (re.union (str.to.re ":::") (str.to.re ";"))) (re.++ (re.union (re.+ (str.to.re "<")) (re.+ (str.to.re "==="))) (re.++ (re.union (re.+ (str.to.re ">>")) (re.+ (str.to.re "?"))) (re.++ (re.* (re.* (str.to.re "@"))) (re.++ (re.union (re.+ (str.to.re "[")) (re.+ (str.to.re "\\\\"))) (re.++ (re.* (re.union (str.to.re "]") (str.to.re "^^"))) (re.++ (re.+ (re.* (str.to.re "__"))) (re.++ (re.union (re.union (str.to.re "``") (str.to.re "{")) (re.union (str.to.re "|||") (str.to.re "}}}"))) (re.++ (re.union (re.+ (str.to.re "~")) (re.+ (str.to.re "00"))) (re.++ (re.union (re.+ (str.to.re "111")) (re.+ (str.to.re "22"))) (re.++ (re.* (re.* (str.to.re "333"))) (re.++ (re.* (re.+ (str.to.re "4"))) (re.++ (re.union (re.union (str.to.re "5") (str.to.re "666")) (re.union (str.to.re "777") (str.to.re "888"))) (re.++ (re.+ (re.+ (str.to.re "99"))) (re.++ (re.union (re.union (str.to.re "aa") (str.to.re "bb")) (re.union (str.to.re "cc") (str.to.re "ddd"))) (re.++ (re.* (re.+ (str.to.re "e"))) (re.++ (re.* (re.union (str.to.re "ff") (str.to.re "ggg"))) (re.++ (re.+ (re.+ (str.to.re "hh"))) (re.++ (re.* (re.* (str.to.re "ii"))) (re.++ (re.+ (re.union (str.to.re "jj") (str.to.re "k"))) (re.++ (re.+ (re.union (str.to.re "ll") (str.to.re "mmm"))) (re.++ (re.union (re.* (str.to.re "n")) (re.* (str.to.re "o"))) (re.++ (re.union (re.union (str.to.re "ppp") (str.to.re "q")) (re.union (str.to.re "r") (str.to.re "sss"))) (re.++ (re.* (re.union (str.to.re "t") (str.to.re "uuu"))) (re.++ (re.* (re.union (str.to.re "vv") (str.to.re "ww"))) (re.++ (re.+ (re.* (str.to.re "xx"))) (re.++ (re.+ (re.+ (str.to.re "y"))) (re.++ (re.union (re.* (str.to.re "z")) (re.* (str.to.re "AAA"))) (re.++ (re.* (re.* (str.to.re "B"))) (re.++ (re.+ (re.* (str.to.re "CCC"))) (re.++ (re.+ (re.union (str.to.re "D") (str.to.re "EEE"))) (re.++ (re.union (re.union (str.to.re "FF") (str.to.re "GG")) (re.union (str.to.re "HHH") (str.to.re "II"))) (re.++ (re.* (re.union (str.to.re "JJJ") (str.to.re "K"))) (re.++ (re.+ (re.union (str.to.re "L") (str.to.re "MM"))) (re.++ (re.* (re.union (str.to.re "N") (str.to.re "OOO"))) (re.++ (re.+ (re.* (str.to.re "PPP"))) (re.++ (re.* (re.* (str.to.re "Q"))) (re.++ (re.union (re.union (str.to.re "RRR") (str.to.re "SSS")) (re.union (str.to.re "T") (str.to.re "U"))) (re.++ (re.* (re.* (str.to.re "VVV"))) (re.++ (re.* (re.* (str.to.re "WW"))) (re.++ (re.+ (re.+ (str.to.re "XX"))) (re.++ (re.+ (re.union (str.to.re "YY") (str.to.re "Z"))) (re.++ (re.* (re.* (str.to.re "!"))) (re.++ (re.+ (re.+ (str.to.re """"))) (re.++ (re.* (re.+ (str.to.re "##"))) (re.++ (re.+ (re.union (str.to.re "$$$") (str.to.re "%%"))) (re.++ (re.* (re.+ (str.to.re "&&"))) (re.++ (re.+ (re.union (str.to.re "'") (str.to.re "(("))) (re.++ (re.+ (re.* (str.to.re ")))"))) (re.++ (re.+ (re.+ (str.to.re "***"))) (re.++ (re.+ (re.* (str.to.re "++"))) (re.++ (re.* (re.union (str.to.re ",") (str.to.re "---"))) (re.++ (re.union (re.union (str.to.re "..") (str.to.re "/")) (re.union (str.to.re "::") (str.to.re ";;"))) (re.++ (re.+ (re.+ (str.to.re "<<<"))) (re.++ (re.union (re.union (str.to.re "=") (str.to.re ">")) (re.union (str.to.re "??") (str.to.re "@"))) (re.++ (re.union (re.union (str.to.re "[") (str.to.re "\\\\\\")) (re.union (str.to.re "]]]") (str.to.re "^^"))) (re.++ (re.* (re.* (str.to.re "_"))) (re.++ (re.union (re.* (str.to.re "```")) (re.* (str.to.re "{{{"))) (re.++ (re.* (re.+ (str.to.re "|||"))) (re.++ (re.* (re.+ (str.to.re "}}}"))) (re.++ (re.+ (re.union (str.to.re "~~~") (str.to.re "00"))) (re.++ (re.* (re.union (str.to.re "1") (str.to.re "22"))) (re.++ (re.+ (re.+ (str.to.re "3"))) (re.++ (re.* (re.* (str.to.re "44"))) (re.++ (re.union (re.+ (str.to.re "555")) (re.+ (str.to.re "6"))) (re.++ (re.+ (re.union (str.to.re "77") (str.to.re "8"))) (re.++ (re.* (re.union (str.to.re "99") (str.to.re "aa"))) (re.++ (re.* (re.+ (str.to.re "bbb"))) (re.++ (re.* (re.* (str.to.re "cc"))) (re.++ (re.union (re.+ (str.to.re "ddd")) (re.+ (str.to.re "eee"))) (re.++ (re.+ (re.union (str.to.re "fff") (str.to.re "gg"))) (re.++ (re.* (re.+ (str.to.re "hh"))) (re.++ (re.union (re.union (str.to.re "ii") (str.to.re "jj")) (re.union (str.to.re "kkk") (str.to.re "lll"))) (re.++ (re.* (re.* (str.to.re "m"))) (re.++ (re.* (re.union (str.to.re "nn") (str.to.re "oo"))) (re.++ (re.+ (re.+ (str.to.re "p"))) (re.++ (re.+ (re.* (str.to.re "qq"))) (re.++ (re.union (re.+ (str.to.re "rr")) (re.+ (str.to.re "ss"))) (re.++ (re.* (re.union (str.to.re "tt") (str.to.re "uu"))) (re.++ (re.union (re.union (str.to.re "v") (str.to.re "ww")) (re.union (str.to.re "xx") (str.to.re "y"))) (re.++ (re.* (re.* (str.to.re "z"))) (re.++ (re.union (re.union (str.to.re "AA") (str.to.re "BB")) (re.union (str.to.re "CC") (str.to.re "DDD"))) (re.++ (re.+ (re.* (str.to.re "EE"))) (re.++ (re.union (re.* (str.to.re "FFF")) (re.* (str.to.re "G"))) (re.++ (re.* (re.* (str.to.re "HH"))) (re.++ (re.union (re.+ (str.to.re "II")) (re.+ (str.to.re "JJ"))) (re.++ (re.+ (re.+ (str.to.re "K"))) (re.++ (re.union (re.union (str.to.re "LLL") (str.to.re "MMM")) (re.union (str.to.re "NN") (str.to.re "OOO"))) (re.* (re.+ (str.to.re "PPP")))))))))))))))))))))))))))))))))))))))))))))))))))))))))))))))))))))))))))))))))))))))))))))))))))))))))))))))))))))))))))))))))))))))))))))))))))))))))))))))))))))))))))))))))))))))))))
(check-sat)